
;this file is automatically generated: Mon Oct 04 22:33:07 IST 2021

;declarations generated

(declare-fun oclExcludes ( Int Int) Bool)
(declare-fun Cardinality ( Int) Int)
(declare-fun class15_Class15IntAttr4 ( Int) Int)
(declare-fun type_eef3f25c_b092_497a_a222_358ba545e4ad_Class55 ( Int) Bool)
(declare-fun type_eef3f25c_b092_497a_a222_358ba545e4ad_Class54 ( Int) Bool)
(declare-fun type_eef3f25c_b092_497a_a222_358ba545e4ad_Class53 ( Int) Bool)
(declare-fun type_eef3f25c_b092_497a_a222_358ba545e4ad_Class52 ( Int) Bool)
(declare-fun type_eef3f25c_b092_497a_a222_358ba545e4ad_Class51 ( Int) Bool)
(declare-fun type_eef3f25c_b092_497a_a222_358ba545e4ad_Class50 ( Int) Bool)
(declare-fun type_eef3f25c_b092_497a_a222_358ba545e4ad_Class49 ( Int) Bool)
(declare-fun type_eef3f25c_b092_497a_a222_358ba545e4ad_Class48 ( Int) Bool)
(declare-fun type_eef3f25c_b092_497a_a222_358ba545e4ad_Class47 ( Int) Bool)
(declare-fun type_eef3f25c_b092_497a_a222_358ba545e4ad_Class46 ( Int) Bool)
(declare-fun type_eef3f25c_b092_497a_a222_358ba545e4ad_Class45 ( Int) Bool)
(declare-fun type_eef3f25c_b092_497a_a222_358ba545e4ad_Class44 ( Int) Bool)
(declare-fun type_eef3f25c_b092_497a_a222_358ba545e4ad_Class43 ( Int) Bool)
(declare-fun type_eef3f25c_b092_497a_a222_358ba545e4ad_Class42 ( Int) Bool)
(declare-fun type_eef3f25c_b092_497a_a222_358ba545e4ad_Class41 ( Int) Bool)
(declare-fun type_eef3f25c_b092_497a_a222_358ba545e4ad_Class40 ( Int) Bool)
(declare-fun type_eef3f25c_b092_497a_a222_358ba545e4ad_Class39 ( Int) Bool)
(declare-fun type_eef3f25c_b092_497a_a222_358ba545e4ad_Class38 ( Int) Bool)
(declare-fun type_eef3f25c_b092_497a_a222_358ba545e4ad_Class37 ( Int) Bool)
(declare-fun type_eef3f25c_b092_497a_a222_358ba545e4ad_Class36 ( Int) Bool)
(declare-fun type_eef3f25c_b092_497a_a222_358ba545e4ad_Class35 ( Int) Bool)
(declare-fun type_eef3f25c_b092_497a_a222_358ba545e4ad_Class34 ( Int) Bool)
(declare-fun type_eef3f25c_b092_497a_a222_358ba545e4ad_Class33 ( Int) Bool)
(declare-fun type_eef3f25c_b092_497a_a222_358ba545e4ad_Class32 ( Int) Bool)
(declare-fun type_eef3f25c_b092_497a_a222_358ba545e4ad_Class31 ( Int) Bool)
(declare-fun type_eef3f25c_b092_497a_a222_358ba545e4ad_Class30 ( Int) Bool)
(declare-fun type_eef3f25c_b092_497a_a222_358ba545e4ad_Class29 ( Int) Bool)
(declare-fun type_eef3f25c_b092_497a_a222_358ba545e4ad_Class28 ( Int) Bool)
(declare-fun type_eef3f25c_b092_497a_a222_358ba545e4ad_Class27 ( Int) Bool)
(declare-fun type_eef3f25c_b092_497a_a222_358ba545e4ad_Class26 ( Int) Bool)
(declare-fun type_eef3f25c_b092_497a_a222_358ba545e4ad_Class25 ( Int) Bool)
(declare-fun type_eef3f25c_b092_497a_a222_358ba545e4ad_Class24 ( Int) Bool)
(declare-fun type_eef3f25c_b092_497a_a222_358ba545e4ad_Class23 ( Int) Bool)
(declare-fun oclSelect ( Int Bool) Int)
(declare-fun type_eef3f25c_b092_497a_a222_358ba545e4ad_Class22 ( Int) Bool)
(declare-fun type_eef3f25c_b092_497a_a222_358ba545e4ad_Class21 ( Int) Bool)
(declare-fun type_eef3f25c_b092_497a_a222_358ba545e4ad_Class20 ( Int) Bool)
(declare-fun Enum0 ( Int) Int)
(declare-fun Enum1 ( Int) Int)
(declare-fun Enum2 ( Int) Int)
(declare-fun container_ ( Int) Int)
(declare-fun type_eef3f25c_b092_497a_a222_358ba545e4ad_Class1 ( Int) Bool)
(declare-fun type_eef3f25c_b092_497a_a222_358ba545e4ad_Class2 ( Int) Bool)
(declare-fun type_eef3f25c_b092_497a_a222_358ba545e4ad_Class0 ( Int) Bool)
(declare-fun type_eef3f25c_b092_497a_a222_358ba545e4ad_Class5 ( Int) Bool)
(declare-fun type_eef3f25c_b092_497a_a222_358ba545e4ad_Class6 ( Int) Bool)
(declare-fun type_eef3f25c_b092_497a_a222_358ba545e4ad_Class3 ( Int) Bool)
(declare-fun type_eef3f25c_b092_497a_a222_358ba545e4ad_Class4 ( Int) Bool)
(declare-fun type_eef3f25c_b092_497a_a222_358ba545e4ad_Class9 ( Int) Bool)
(declare-fun type_eef3f25c_b092_497a_a222_358ba545e4ad_Class7 ( Int) Bool)
(declare-fun type_eef3f25c_b092_497a_a222_358ba545e4ad_Class8 ( Int) Bool)
(declare-fun type_eef3f25c_b092_497a_a222_358ba545e4ad_Class19 ( Int) Bool)
(declare-fun type_eef3f25c_b092_497a_a222_358ba545e4ad_Class18 ( Int) Bool)
(declare-fun type_eef3f25c_b092_497a_a222_358ba545e4ad_Class17 ( Int) Bool)
(declare-fun type_eef3f25c_b092_497a_a222_358ba545e4ad_Class16 ( Int) Bool)
(declare-fun type_eef3f25c_b092_497a_a222_358ba545e4ad_Class15 ( Int) Bool)
(declare-fun type_eef3f25c_b092_497a_a222_358ba545e4ad_Class14 ( Int) Bool)
(declare-fun type_eef3f25c_b092_497a_a222_358ba545e4ad_Class13 ( Int) Bool)
(declare-fun type_eef3f25c_b092_497a_a222_358ba545e4ad_Class12 ( Int) Bool)
(declare-fun type_eef3f25c_b092_497a_a222_358ba545e4ad_Class11 ( Int) Bool)
(declare-fun type_eef3f25c_b092_497a_a222_358ba545e4ad_Class10 ( Int) Bool)
(declare-fun oclIncludes ( Int Int) Bool)
(declare-fun obj_a794c9d8_d994_4677_8191_b4e287b515de ( Int) Int)
(declare-fun ObjAt ( Int Int) Int)

;formula(s) generated
(assert (! (forall ((v Int)) (=> ( type_eef3f25c_b092_497a_a222_358ba545e4ad_Class15 v )  (= ( class15_Class15IntAttr4 ( obj_a794c9d8_d994_4677_8191_b4e287b515de v )  )  9))):named l0))
(assert (! (exists ((o Int)) ( type_eef3f25c_b092_497a_a222_358ba545e4ad_Class0 ( obj_a794c9d8_d994_4677_8191_b4e287b515de o )  ) ):named c0))
(assert (! (exists ((o Int)) (and (and (and (and (and ( type_eef3f25c_b092_497a_a222_358ba545e4ad_Class1 ( obj_a794c9d8_d994_4677_8191_b4e287b515de o )  )  ( type_eef3f25c_b092_497a_a222_358ba545e4ad_Class45 ( obj_a794c9d8_d994_4677_8191_b4e287b515de o )  ) ) ( type_eef3f25c_b092_497a_a222_358ba545e4ad_Class12 ( obj_a794c9d8_d994_4677_8191_b4e287b515de o )  ) ) ( type_eef3f25c_b092_497a_a222_358ba545e4ad_Class33 ( obj_a794c9d8_d994_4677_8191_b4e287b515de o )  ) ) ( type_eef3f25c_b092_497a_a222_358ba545e4ad_Class22 ( obj_a794c9d8_d994_4677_8191_b4e287b515de o )  ) ) ( type_eef3f25c_b092_497a_a222_358ba545e4ad_Class39 ( obj_a794c9d8_d994_4677_8191_b4e287b515de o )  ) )):named c1))
(assert (! (exists ((o Int)) (and (and (and (and (and (and (and (and (and ( type_eef3f25c_b092_497a_a222_358ba545e4ad_Class10 ( obj_a794c9d8_d994_4677_8191_b4e287b515de o )  )  ( type_eef3f25c_b092_497a_a222_358ba545e4ad_Class45 ( obj_a794c9d8_d994_4677_8191_b4e287b515de o )  ) ) ( type_eef3f25c_b092_497a_a222_358ba545e4ad_Class12 ( obj_a794c9d8_d994_4677_8191_b4e287b515de o )  ) ) ( type_eef3f25c_b092_497a_a222_358ba545e4ad_Class55 ( obj_a794c9d8_d994_4677_8191_b4e287b515de o )  ) ) ( type_eef3f25c_b092_497a_a222_358ba545e4ad_Class33 ( obj_a794c9d8_d994_4677_8191_b4e287b515de o )  ) ) ( type_eef3f25c_b092_497a_a222_358ba545e4ad_Class22 ( obj_a794c9d8_d994_4677_8191_b4e287b515de o )  ) ) ( type_eef3f25c_b092_497a_a222_358ba545e4ad_Class29 ( obj_a794c9d8_d994_4677_8191_b4e287b515de o )  ) ) ( type_eef3f25c_b092_497a_a222_358ba545e4ad_Class39 ( obj_a794c9d8_d994_4677_8191_b4e287b515de o )  ) ) ( type_eef3f25c_b092_497a_a222_358ba545e4ad_Class50 ( obj_a794c9d8_d994_4677_8191_b4e287b515de o )  ) ) ( type_eef3f25c_b092_497a_a222_358ba545e4ad_Class41 ( obj_a794c9d8_d994_4677_8191_b4e287b515de o )  ) )):named c2))
(assert (! (exists ((o Int)) ( type_eef3f25c_b092_497a_a222_358ba545e4ad_Class11 ( obj_a794c9d8_d994_4677_8191_b4e287b515de o )  ) ):named c3))
(assert (! (exists ((o Int)) (and (and (and ( type_eef3f25c_b092_497a_a222_358ba545e4ad_Class12 ( obj_a794c9d8_d994_4677_8191_b4e287b515de o )  )  ( type_eef3f25c_b092_497a_a222_358ba545e4ad_Class33 ( obj_a794c9d8_d994_4677_8191_b4e287b515de o )  ) ) ( type_eef3f25c_b092_497a_a222_358ba545e4ad_Class22 ( obj_a794c9d8_d994_4677_8191_b4e287b515de o )  ) ) ( type_eef3f25c_b092_497a_a222_358ba545e4ad_Class39 ( obj_a794c9d8_d994_4677_8191_b4e287b515de o )  ) )):named c4))
(assert (! (exists ((o Int)) (and (and (and (and (and (and (and (and (and ( type_eef3f25c_b092_497a_a222_358ba545e4ad_Class13 ( obj_a794c9d8_d994_4677_8191_b4e287b515de o )  )  ( type_eef3f25c_b092_497a_a222_358ba545e4ad_Class45 ( obj_a794c9d8_d994_4677_8191_b4e287b515de o )  ) ) ( type_eef3f25c_b092_497a_a222_358ba545e4ad_Class12 ( obj_a794c9d8_d994_4677_8191_b4e287b515de o )  ) ) ( type_eef3f25c_b092_497a_a222_358ba545e4ad_Class55 ( obj_a794c9d8_d994_4677_8191_b4e287b515de o )  ) ) ( type_eef3f25c_b092_497a_a222_358ba545e4ad_Class33 ( obj_a794c9d8_d994_4677_8191_b4e287b515de o )  ) ) ( type_eef3f25c_b092_497a_a222_358ba545e4ad_Class22 ( obj_a794c9d8_d994_4677_8191_b4e287b515de o )  ) ) ( type_eef3f25c_b092_497a_a222_358ba545e4ad_Class29 ( obj_a794c9d8_d994_4677_8191_b4e287b515de o )  ) ) ( type_eef3f25c_b092_497a_a222_358ba545e4ad_Class39 ( obj_a794c9d8_d994_4677_8191_b4e287b515de o )  ) ) ( type_eef3f25c_b092_497a_a222_358ba545e4ad_Class50 ( obj_a794c9d8_d994_4677_8191_b4e287b515de o )  ) ) ( type_eef3f25c_b092_497a_a222_358ba545e4ad_Class41 ( obj_a794c9d8_d994_4677_8191_b4e287b515de o )  ) )):named c5))
(assert (! (exists ((o Int)) (and (and (and (and (and (and (and (and (and ( type_eef3f25c_b092_497a_a222_358ba545e4ad_Class14 ( obj_a794c9d8_d994_4677_8191_b4e287b515de o )  )  ( type_eef3f25c_b092_497a_a222_358ba545e4ad_Class45 ( obj_a794c9d8_d994_4677_8191_b4e287b515de o )  ) ) ( type_eef3f25c_b092_497a_a222_358ba545e4ad_Class12 ( obj_a794c9d8_d994_4677_8191_b4e287b515de o )  ) ) ( type_eef3f25c_b092_497a_a222_358ba545e4ad_Class55 ( obj_a794c9d8_d994_4677_8191_b4e287b515de o )  ) ) ( type_eef3f25c_b092_497a_a222_358ba545e4ad_Class33 ( obj_a794c9d8_d994_4677_8191_b4e287b515de o )  ) ) ( type_eef3f25c_b092_497a_a222_358ba545e4ad_Class22 ( obj_a794c9d8_d994_4677_8191_b4e287b515de o )  ) ) ( type_eef3f25c_b092_497a_a222_358ba545e4ad_Class29 ( obj_a794c9d8_d994_4677_8191_b4e287b515de o )  ) ) ( type_eef3f25c_b092_497a_a222_358ba545e4ad_Class39 ( obj_a794c9d8_d994_4677_8191_b4e287b515de o )  ) ) ( type_eef3f25c_b092_497a_a222_358ba545e4ad_Class50 ( obj_a794c9d8_d994_4677_8191_b4e287b515de o )  ) ) ( type_eef3f25c_b092_497a_a222_358ba545e4ad_Class41 ( obj_a794c9d8_d994_4677_8191_b4e287b515de o )  ) )):named c6))
(assert (! (exists ((o Int)) ( type_eef3f25c_b092_497a_a222_358ba545e4ad_Class15 ( obj_a794c9d8_d994_4677_8191_b4e287b515de o )  ) ):named c7))
(assert (! (exists ((o Int)) (and (and (and (and (and ( type_eef3f25c_b092_497a_a222_358ba545e4ad_Class16 ( obj_a794c9d8_d994_4677_8191_b4e287b515de o )  )  ( type_eef3f25c_b092_497a_a222_358ba545e4ad_Class45 ( obj_a794c9d8_d994_4677_8191_b4e287b515de o )  ) ) ( type_eef3f25c_b092_497a_a222_358ba545e4ad_Class12 ( obj_a794c9d8_d994_4677_8191_b4e287b515de o )  ) ) ( type_eef3f25c_b092_497a_a222_358ba545e4ad_Class33 ( obj_a794c9d8_d994_4677_8191_b4e287b515de o )  ) ) ( type_eef3f25c_b092_497a_a222_358ba545e4ad_Class22 ( obj_a794c9d8_d994_4677_8191_b4e287b515de o )  ) ) ( type_eef3f25c_b092_497a_a222_358ba545e4ad_Class39 ( obj_a794c9d8_d994_4677_8191_b4e287b515de o )  ) )):named c8))
(assert (! (exists ((o Int)) ( type_eef3f25c_b092_497a_a222_358ba545e4ad_Class17 ( obj_a794c9d8_d994_4677_8191_b4e287b515de o )  ) ):named c9))
(assert (! (exists ((o Int)) (and (and (and ( type_eef3f25c_b092_497a_a222_358ba545e4ad_Class18 ( obj_a794c9d8_d994_4677_8191_b4e287b515de o )  )  ( type_eef3f25c_b092_497a_a222_358ba545e4ad_Class25 ( obj_a794c9d8_d994_4677_8191_b4e287b515de o )  ) ) ( type_eef3f25c_b092_497a_a222_358ba545e4ad_Class24 ( obj_a794c9d8_d994_4677_8191_b4e287b515de o )  ) ) ( type_eef3f25c_b092_497a_a222_358ba545e4ad_Class39 ( obj_a794c9d8_d994_4677_8191_b4e287b515de o )  ) )):named c10))
(assert (! (exists ((o Int)) (and (and (and (and (and (and (and (and (and ( type_eef3f25c_b092_497a_a222_358ba545e4ad_Class19 ( obj_a794c9d8_d994_4677_8191_b4e287b515de o )  )  ( type_eef3f25c_b092_497a_a222_358ba545e4ad_Class45 ( obj_a794c9d8_d994_4677_8191_b4e287b515de o )  ) ) ( type_eef3f25c_b092_497a_a222_358ba545e4ad_Class12 ( obj_a794c9d8_d994_4677_8191_b4e287b515de o )  ) ) ( type_eef3f25c_b092_497a_a222_358ba545e4ad_Class55 ( obj_a794c9d8_d994_4677_8191_b4e287b515de o )  ) ) ( type_eef3f25c_b092_497a_a222_358ba545e4ad_Class33 ( obj_a794c9d8_d994_4677_8191_b4e287b515de o )  ) ) ( type_eef3f25c_b092_497a_a222_358ba545e4ad_Class22 ( obj_a794c9d8_d994_4677_8191_b4e287b515de o )  ) ) ( type_eef3f25c_b092_497a_a222_358ba545e4ad_Class29 ( obj_a794c9d8_d994_4677_8191_b4e287b515de o )  ) ) ( type_eef3f25c_b092_497a_a222_358ba545e4ad_Class39 ( obj_a794c9d8_d994_4677_8191_b4e287b515de o )  ) ) ( type_eef3f25c_b092_497a_a222_358ba545e4ad_Class50 ( obj_a794c9d8_d994_4677_8191_b4e287b515de o )  ) ) ( type_eef3f25c_b092_497a_a222_358ba545e4ad_Class41 ( obj_a794c9d8_d994_4677_8191_b4e287b515de o )  ) )):named c11))
(assert (! (exists ((o Int)) ( type_eef3f25c_b092_497a_a222_358ba545e4ad_Class2 ( obj_a794c9d8_d994_4677_8191_b4e287b515de o )  ) ):named c12))
(assert (! (exists ((o Int)) ( type_eef3f25c_b092_497a_a222_358ba545e4ad_Class20 ( obj_a794c9d8_d994_4677_8191_b4e287b515de o )  ) ):named c13))
(assert (! (exists ((o Int)) (and (and (and (and (and (and (and (and (and ( type_eef3f25c_b092_497a_a222_358ba545e4ad_Class21 ( obj_a794c9d8_d994_4677_8191_b4e287b515de o )  )  ( type_eef3f25c_b092_497a_a222_358ba545e4ad_Class45 ( obj_a794c9d8_d994_4677_8191_b4e287b515de o )  ) ) ( type_eef3f25c_b092_497a_a222_358ba545e4ad_Class12 ( obj_a794c9d8_d994_4677_8191_b4e287b515de o )  ) ) ( type_eef3f25c_b092_497a_a222_358ba545e4ad_Class33 ( obj_a794c9d8_d994_4677_8191_b4e287b515de o )  ) ) ( type_eef3f25c_b092_497a_a222_358ba545e4ad_Class22 ( obj_a794c9d8_d994_4677_8191_b4e287b515de o )  ) ) ( type_eef3f25c_b092_497a_a222_358ba545e4ad_Class16 ( obj_a794c9d8_d994_4677_8191_b4e287b515de o )  ) ) ( type_eef3f25c_b092_497a_a222_358ba545e4ad_Class29 ( obj_a794c9d8_d994_4677_8191_b4e287b515de o )  ) ) ( type_eef3f25c_b092_497a_a222_358ba545e4ad_Class39 ( obj_a794c9d8_d994_4677_8191_b4e287b515de o )  ) ) ( type_eef3f25c_b092_497a_a222_358ba545e4ad_Class41 ( obj_a794c9d8_d994_4677_8191_b4e287b515de o )  ) ) ( type_eef3f25c_b092_497a_a222_358ba545e4ad_Class51 ( obj_a794c9d8_d994_4677_8191_b4e287b515de o )  ) )):named c14))
(assert (! (exists ((o Int)) (and ( type_eef3f25c_b092_497a_a222_358ba545e4ad_Class22 ( obj_a794c9d8_d994_4677_8191_b4e287b515de o )  )  ( type_eef3f25c_b092_497a_a222_358ba545e4ad_Class39 ( obj_a794c9d8_d994_4677_8191_b4e287b515de o )  ) )):named c15))
(assert (! (exists ((o Int)) (and (and (and (and ( type_eef3f25c_b092_497a_a222_358ba545e4ad_Class23 ( obj_a794c9d8_d994_4677_8191_b4e287b515de o )  )  ( type_eef3f25c_b092_497a_a222_358ba545e4ad_Class25 ( obj_a794c9d8_d994_4677_8191_b4e287b515de o )  ) ) ( type_eef3f25c_b092_497a_a222_358ba545e4ad_Class24 ( obj_a794c9d8_d994_4677_8191_b4e287b515de o )  ) ) ( type_eef3f25c_b092_497a_a222_358ba545e4ad_Class39 ( obj_a794c9d8_d994_4677_8191_b4e287b515de o )  ) ) ( type_eef3f25c_b092_497a_a222_358ba545e4ad_Class5 ( obj_a794c9d8_d994_4677_8191_b4e287b515de o )  ) )):named c16))
(assert (! (exists ((o Int)) (and (and ( type_eef3f25c_b092_497a_a222_358ba545e4ad_Class24 ( obj_a794c9d8_d994_4677_8191_b4e287b515de o )  )  ( type_eef3f25c_b092_497a_a222_358ba545e4ad_Class25 ( obj_a794c9d8_d994_4677_8191_b4e287b515de o )  ) ) ( type_eef3f25c_b092_497a_a222_358ba545e4ad_Class39 ( obj_a794c9d8_d994_4677_8191_b4e287b515de o )  ) )):named c17))
(assert (! (exists ((o Int)) (and ( type_eef3f25c_b092_497a_a222_358ba545e4ad_Class25 ( obj_a794c9d8_d994_4677_8191_b4e287b515de o )  )  ( type_eef3f25c_b092_497a_a222_358ba545e4ad_Class39 ( obj_a794c9d8_d994_4677_8191_b4e287b515de o )  ) )):named c18))
(assert (! (exists ((o Int)) ( type_eef3f25c_b092_497a_a222_358ba545e4ad_Class26 ( obj_a794c9d8_d994_4677_8191_b4e287b515de o )  ) ):named c19))
(assert (! (exists ((o Int)) ( type_eef3f25c_b092_497a_a222_358ba545e4ad_Class27 ( obj_a794c9d8_d994_4677_8191_b4e287b515de o )  ) ):named c20))
(assert (! (exists ((o Int)) (and (and (and (and (and (and (and ( type_eef3f25c_b092_497a_a222_358ba545e4ad_Class28 ( obj_a794c9d8_d994_4677_8191_b4e287b515de o )  )  ( type_eef3f25c_b092_497a_a222_358ba545e4ad_Class45 ( obj_a794c9d8_d994_4677_8191_b4e287b515de o )  ) ) ( type_eef3f25c_b092_497a_a222_358ba545e4ad_Class12 ( obj_a794c9d8_d994_4677_8191_b4e287b515de o )  ) ) ( type_eef3f25c_b092_497a_a222_358ba545e4ad_Class33 ( obj_a794c9d8_d994_4677_8191_b4e287b515de o )  ) ) ( type_eef3f25c_b092_497a_a222_358ba545e4ad_Class22 ( obj_a794c9d8_d994_4677_8191_b4e287b515de o )  ) ) ( type_eef3f25c_b092_497a_a222_358ba545e4ad_Class29 ( obj_a794c9d8_d994_4677_8191_b4e287b515de o )  ) ) ( type_eef3f25c_b092_497a_a222_358ba545e4ad_Class39 ( obj_a794c9d8_d994_4677_8191_b4e287b515de o )  ) ) ( type_eef3f25c_b092_497a_a222_358ba545e4ad_Class41 ( obj_a794c9d8_d994_4677_8191_b4e287b515de o )  ) )):named c21))
(assert (! (exists ((o Int)) (and (and (and (and (and (and ( type_eef3f25c_b092_497a_a222_358ba545e4ad_Class29 ( obj_a794c9d8_d994_4677_8191_b4e287b515de o )  )  ( type_eef3f25c_b092_497a_a222_358ba545e4ad_Class45 ( obj_a794c9d8_d994_4677_8191_b4e287b515de o )  ) ) ( type_eef3f25c_b092_497a_a222_358ba545e4ad_Class12 ( obj_a794c9d8_d994_4677_8191_b4e287b515de o )  ) ) ( type_eef3f25c_b092_497a_a222_358ba545e4ad_Class33 ( obj_a794c9d8_d994_4677_8191_b4e287b515de o )  ) ) ( type_eef3f25c_b092_497a_a222_358ba545e4ad_Class22 ( obj_a794c9d8_d994_4677_8191_b4e287b515de o )  ) ) ( type_eef3f25c_b092_497a_a222_358ba545e4ad_Class39 ( obj_a794c9d8_d994_4677_8191_b4e287b515de o )  ) ) ( type_eef3f25c_b092_497a_a222_358ba545e4ad_Class41 ( obj_a794c9d8_d994_4677_8191_b4e287b515de o )  ) )):named c22))
(assert (! (exists ((o Int)) (and (and (and ( type_eef3f25c_b092_497a_a222_358ba545e4ad_Class3 ( obj_a794c9d8_d994_4677_8191_b4e287b515de o )  )  ( type_eef3f25c_b092_497a_a222_358ba545e4ad_Class25 ( obj_a794c9d8_d994_4677_8191_b4e287b515de o )  ) ) ( type_eef3f25c_b092_497a_a222_358ba545e4ad_Class24 ( obj_a794c9d8_d994_4677_8191_b4e287b515de o )  ) ) ( type_eef3f25c_b092_497a_a222_358ba545e4ad_Class39 ( obj_a794c9d8_d994_4677_8191_b4e287b515de o )  ) )):named c23))
(assert (! (exists ((o Int)) (and ( type_eef3f25c_b092_497a_a222_358ba545e4ad_Class30 ( obj_a794c9d8_d994_4677_8191_b4e287b515de o )  )  ( type_eef3f25c_b092_497a_a222_358ba545e4ad_Class39 ( obj_a794c9d8_d994_4677_8191_b4e287b515de o )  ) )):named c24))
(assert (! (exists ((o Int)) (and (and (and (and (and ( type_eef3f25c_b092_497a_a222_358ba545e4ad_Class31 ( obj_a794c9d8_d994_4677_8191_b4e287b515de o )  )  ( type_eef3f25c_b092_497a_a222_358ba545e4ad_Class45 ( obj_a794c9d8_d994_4677_8191_b4e287b515de o )  ) ) ( type_eef3f25c_b092_497a_a222_358ba545e4ad_Class12 ( obj_a794c9d8_d994_4677_8191_b4e287b515de o )  ) ) ( type_eef3f25c_b092_497a_a222_358ba545e4ad_Class33 ( obj_a794c9d8_d994_4677_8191_b4e287b515de o )  ) ) ( type_eef3f25c_b092_497a_a222_358ba545e4ad_Class22 ( obj_a794c9d8_d994_4677_8191_b4e287b515de o )  ) ) ( type_eef3f25c_b092_497a_a222_358ba545e4ad_Class39 ( obj_a794c9d8_d994_4677_8191_b4e287b515de o )  ) )):named c25))
(assert (! (exists ((o Int)) ( type_eef3f25c_b092_497a_a222_358ba545e4ad_Class32 ( obj_a794c9d8_d994_4677_8191_b4e287b515de o )  ) ):named c26))
(assert (! (exists ((o Int)) (and (and ( type_eef3f25c_b092_497a_a222_358ba545e4ad_Class33 ( obj_a794c9d8_d994_4677_8191_b4e287b515de o )  )  ( type_eef3f25c_b092_497a_a222_358ba545e4ad_Class22 ( obj_a794c9d8_d994_4677_8191_b4e287b515de o )  ) ) ( type_eef3f25c_b092_497a_a222_358ba545e4ad_Class39 ( obj_a794c9d8_d994_4677_8191_b4e287b515de o )  ) )):named c27))
(assert (! (exists ((o Int)) (and (and (and ( type_eef3f25c_b092_497a_a222_358ba545e4ad_Class34 ( obj_a794c9d8_d994_4677_8191_b4e287b515de o )  )  ( type_eef3f25c_b092_497a_a222_358ba545e4ad_Class25 ( obj_a794c9d8_d994_4677_8191_b4e287b515de o )  ) ) ( type_eef3f25c_b092_497a_a222_358ba545e4ad_Class24 ( obj_a794c9d8_d994_4677_8191_b4e287b515de o )  ) ) ( type_eef3f25c_b092_497a_a222_358ba545e4ad_Class39 ( obj_a794c9d8_d994_4677_8191_b4e287b515de o )  ) )):named c28))
(assert (! (exists ((o Int)) (and (and ( type_eef3f25c_b092_497a_a222_358ba545e4ad_Class35 ( obj_a794c9d8_d994_4677_8191_b4e287b515de o )  )  ( type_eef3f25c_b092_497a_a222_358ba545e4ad_Class39 ( obj_a794c9d8_d994_4677_8191_b4e287b515de o )  ) ) ( type_eef3f25c_b092_497a_a222_358ba545e4ad_Class30 ( obj_a794c9d8_d994_4677_8191_b4e287b515de o )  ) )):named c29))
(assert (! (exists ((o Int)) ( type_eef3f25c_b092_497a_a222_358ba545e4ad_Class36 ( obj_a794c9d8_d994_4677_8191_b4e287b515de o )  ) ):named c30))
(assert (! (exists ((o Int)) ( type_eef3f25c_b092_497a_a222_358ba545e4ad_Class37 ( obj_a794c9d8_d994_4677_8191_b4e287b515de o )  ) ):named c31))
(assert (! (exists ((o Int)) ( type_eef3f25c_b092_497a_a222_358ba545e4ad_Class38 ( obj_a794c9d8_d994_4677_8191_b4e287b515de o )  ) ):named c32))
(assert (! (exists ((o Int)) ( type_eef3f25c_b092_497a_a222_358ba545e4ad_Class39 ( obj_a794c9d8_d994_4677_8191_b4e287b515de o )  ) ):named c33))
(assert (! (exists ((o Int)) ( type_eef3f25c_b092_497a_a222_358ba545e4ad_Class4 ( obj_a794c9d8_d994_4677_8191_b4e287b515de o )  ) ):named c34))
(assert (! (exists ((o Int)) (and (and (and (and (and (and (and (and (and ( type_eef3f25c_b092_497a_a222_358ba545e4ad_Class40 ( obj_a794c9d8_d994_4677_8191_b4e287b515de o )  )  ( type_eef3f25c_b092_497a_a222_358ba545e4ad_Class45 ( obj_a794c9d8_d994_4677_8191_b4e287b515de o )  ) ) ( type_eef3f25c_b092_497a_a222_358ba545e4ad_Class12 ( obj_a794c9d8_d994_4677_8191_b4e287b515de o )  ) ) ( type_eef3f25c_b092_497a_a222_358ba545e4ad_Class55 ( obj_a794c9d8_d994_4677_8191_b4e287b515de o )  ) ) ( type_eef3f25c_b092_497a_a222_358ba545e4ad_Class33 ( obj_a794c9d8_d994_4677_8191_b4e287b515de o )  ) ) ( type_eef3f25c_b092_497a_a222_358ba545e4ad_Class22 ( obj_a794c9d8_d994_4677_8191_b4e287b515de o )  ) ) ( type_eef3f25c_b092_497a_a222_358ba545e4ad_Class29 ( obj_a794c9d8_d994_4677_8191_b4e287b515de o )  ) ) ( type_eef3f25c_b092_497a_a222_358ba545e4ad_Class39 ( obj_a794c9d8_d994_4677_8191_b4e287b515de o )  ) ) ( type_eef3f25c_b092_497a_a222_358ba545e4ad_Class50 ( obj_a794c9d8_d994_4677_8191_b4e287b515de o )  ) ) ( type_eef3f25c_b092_497a_a222_358ba545e4ad_Class41 ( obj_a794c9d8_d994_4677_8191_b4e287b515de o )  ) )):named c35))
(assert (! (exists ((o Int)) (and (and (and (and (and ( type_eef3f25c_b092_497a_a222_358ba545e4ad_Class41 ( obj_a794c9d8_d994_4677_8191_b4e287b515de o )  )  ( type_eef3f25c_b092_497a_a222_358ba545e4ad_Class45 ( obj_a794c9d8_d994_4677_8191_b4e287b515de o )  ) ) ( type_eef3f25c_b092_497a_a222_358ba545e4ad_Class12 ( obj_a794c9d8_d994_4677_8191_b4e287b515de o )  ) ) ( type_eef3f25c_b092_497a_a222_358ba545e4ad_Class33 ( obj_a794c9d8_d994_4677_8191_b4e287b515de o )  ) ) ( type_eef3f25c_b092_497a_a222_358ba545e4ad_Class22 ( obj_a794c9d8_d994_4677_8191_b4e287b515de o )  ) ) ( type_eef3f25c_b092_497a_a222_358ba545e4ad_Class39 ( obj_a794c9d8_d994_4677_8191_b4e287b515de o )  ) )):named c36))
(assert (! (exists ((o Int)) (and ( type_eef3f25c_b092_497a_a222_358ba545e4ad_Class42 ( obj_a794c9d8_d994_4677_8191_b4e287b515de o )  )  ( type_eef3f25c_b092_497a_a222_358ba545e4ad_Class39 ( obj_a794c9d8_d994_4677_8191_b4e287b515de o )  ) )):named c37))
(assert (! (exists ((o Int)) ( type_eef3f25c_b092_497a_a222_358ba545e4ad_Class43 ( obj_a794c9d8_d994_4677_8191_b4e287b515de o )  ) ):named c38))
(assert (! (exists ((o Int)) (and (and (and (and (and (and (and ( type_eef3f25c_b092_497a_a222_358ba545e4ad_Class44 ( obj_a794c9d8_d994_4677_8191_b4e287b515de o )  )  ( type_eef3f25c_b092_497a_a222_358ba545e4ad_Class45 ( obj_a794c9d8_d994_4677_8191_b4e287b515de o )  ) ) ( type_eef3f25c_b092_497a_a222_358ba545e4ad_Class12 ( obj_a794c9d8_d994_4677_8191_b4e287b515de o )  ) ) ( type_eef3f25c_b092_497a_a222_358ba545e4ad_Class33 ( obj_a794c9d8_d994_4677_8191_b4e287b515de o )  ) ) ( type_eef3f25c_b092_497a_a222_358ba545e4ad_Class22 ( obj_a794c9d8_d994_4677_8191_b4e287b515de o )  ) ) ( type_eef3f25c_b092_497a_a222_358ba545e4ad_Class29 ( obj_a794c9d8_d994_4677_8191_b4e287b515de o )  ) ) ( type_eef3f25c_b092_497a_a222_358ba545e4ad_Class39 ( obj_a794c9d8_d994_4677_8191_b4e287b515de o )  ) ) ( type_eef3f25c_b092_497a_a222_358ba545e4ad_Class41 ( obj_a794c9d8_d994_4677_8191_b4e287b515de o )  ) )):named c39))
(assert (! (exists ((o Int)) (and (and (and (and ( type_eef3f25c_b092_497a_a222_358ba545e4ad_Class45 ( obj_a794c9d8_d994_4677_8191_b4e287b515de o )  )  ( type_eef3f25c_b092_497a_a222_358ba545e4ad_Class12 ( obj_a794c9d8_d994_4677_8191_b4e287b515de o )  ) ) ( type_eef3f25c_b092_497a_a222_358ba545e4ad_Class33 ( obj_a794c9d8_d994_4677_8191_b4e287b515de o )  ) ) ( type_eef3f25c_b092_497a_a222_358ba545e4ad_Class22 ( obj_a794c9d8_d994_4677_8191_b4e287b515de o )  ) ) ( type_eef3f25c_b092_497a_a222_358ba545e4ad_Class39 ( obj_a794c9d8_d994_4677_8191_b4e287b515de o )  ) )):named c40))
(assert (! (exists ((o Int)) (and (and ( type_eef3f25c_b092_497a_a222_358ba545e4ad_Class46 ( obj_a794c9d8_d994_4677_8191_b4e287b515de o )  )  ( type_eef3f25c_b092_497a_a222_358ba545e4ad_Class39 ( obj_a794c9d8_d994_4677_8191_b4e287b515de o )  ) ) ( type_eef3f25c_b092_497a_a222_358ba545e4ad_Class5 ( obj_a794c9d8_d994_4677_8191_b4e287b515de o )  ) )):named c41))
(assert (! (exists ((o Int)) ( type_eef3f25c_b092_497a_a222_358ba545e4ad_Class47 ( obj_a794c9d8_d994_4677_8191_b4e287b515de o )  ) ):named c42))
(assert (! (exists ((o Int)) (and (and (and (and (and (and (and (and (and ( type_eef3f25c_b092_497a_a222_358ba545e4ad_Class48 ( obj_a794c9d8_d994_4677_8191_b4e287b515de o )  )  ( type_eef3f25c_b092_497a_a222_358ba545e4ad_Class45 ( obj_a794c9d8_d994_4677_8191_b4e287b515de o )  ) ) ( type_eef3f25c_b092_497a_a222_358ba545e4ad_Class12 ( obj_a794c9d8_d994_4677_8191_b4e287b515de o )  ) ) ( type_eef3f25c_b092_497a_a222_358ba545e4ad_Class55 ( obj_a794c9d8_d994_4677_8191_b4e287b515de o )  ) ) ( type_eef3f25c_b092_497a_a222_358ba545e4ad_Class33 ( obj_a794c9d8_d994_4677_8191_b4e287b515de o )  ) ) ( type_eef3f25c_b092_497a_a222_358ba545e4ad_Class22 ( obj_a794c9d8_d994_4677_8191_b4e287b515de o )  ) ) ( type_eef3f25c_b092_497a_a222_358ba545e4ad_Class29 ( obj_a794c9d8_d994_4677_8191_b4e287b515de o )  ) ) ( type_eef3f25c_b092_497a_a222_358ba545e4ad_Class39 ( obj_a794c9d8_d994_4677_8191_b4e287b515de o )  ) ) ( type_eef3f25c_b092_497a_a222_358ba545e4ad_Class50 ( obj_a794c9d8_d994_4677_8191_b4e287b515de o )  ) ) ( type_eef3f25c_b092_497a_a222_358ba545e4ad_Class41 ( obj_a794c9d8_d994_4677_8191_b4e287b515de o )  ) )):named c43))
(assert (! (exists ((o Int)) (and (and (and (and (and (and (and (and (and ( type_eef3f25c_b092_497a_a222_358ba545e4ad_Class49 ( obj_a794c9d8_d994_4677_8191_b4e287b515de o )  )  ( type_eef3f25c_b092_497a_a222_358ba545e4ad_Class45 ( obj_a794c9d8_d994_4677_8191_b4e287b515de o )  ) ) ( type_eef3f25c_b092_497a_a222_358ba545e4ad_Class12 ( obj_a794c9d8_d994_4677_8191_b4e287b515de o )  ) ) ( type_eef3f25c_b092_497a_a222_358ba545e4ad_Class55 ( obj_a794c9d8_d994_4677_8191_b4e287b515de o )  ) ) ( type_eef3f25c_b092_497a_a222_358ba545e4ad_Class33 ( obj_a794c9d8_d994_4677_8191_b4e287b515de o )  ) ) ( type_eef3f25c_b092_497a_a222_358ba545e4ad_Class22 ( obj_a794c9d8_d994_4677_8191_b4e287b515de o )  ) ) ( type_eef3f25c_b092_497a_a222_358ba545e4ad_Class29 ( obj_a794c9d8_d994_4677_8191_b4e287b515de o )  ) ) ( type_eef3f25c_b092_497a_a222_358ba545e4ad_Class39 ( obj_a794c9d8_d994_4677_8191_b4e287b515de o )  ) ) ( type_eef3f25c_b092_497a_a222_358ba545e4ad_Class50 ( obj_a794c9d8_d994_4677_8191_b4e287b515de o )  ) ) ( type_eef3f25c_b092_497a_a222_358ba545e4ad_Class41 ( obj_a794c9d8_d994_4677_8191_b4e287b515de o )  ) )):named c44))
(assert (! (exists ((o Int)) (and ( type_eef3f25c_b092_497a_a222_358ba545e4ad_Class5 ( obj_a794c9d8_d994_4677_8191_b4e287b515de o )  )  ( type_eef3f25c_b092_497a_a222_358ba545e4ad_Class39 ( obj_a794c9d8_d994_4677_8191_b4e287b515de o )  ) )):named c45))
(assert (! (exists ((o Int)) (and (and (and (and (and (and (and (and ( type_eef3f25c_b092_497a_a222_358ba545e4ad_Class50 ( obj_a794c9d8_d994_4677_8191_b4e287b515de o )  )  ( type_eef3f25c_b092_497a_a222_358ba545e4ad_Class45 ( obj_a794c9d8_d994_4677_8191_b4e287b515de o )  ) ) ( type_eef3f25c_b092_497a_a222_358ba545e4ad_Class12 ( obj_a794c9d8_d994_4677_8191_b4e287b515de o )  ) ) ( type_eef3f25c_b092_497a_a222_358ba545e4ad_Class55 ( obj_a794c9d8_d994_4677_8191_b4e287b515de o )  ) ) ( type_eef3f25c_b092_497a_a222_358ba545e4ad_Class33 ( obj_a794c9d8_d994_4677_8191_b4e287b515de o )  ) ) ( type_eef3f25c_b092_497a_a222_358ba545e4ad_Class22 ( obj_a794c9d8_d994_4677_8191_b4e287b515de o )  ) ) ( type_eef3f25c_b092_497a_a222_358ba545e4ad_Class29 ( obj_a794c9d8_d994_4677_8191_b4e287b515de o )  ) ) ( type_eef3f25c_b092_497a_a222_358ba545e4ad_Class39 ( obj_a794c9d8_d994_4677_8191_b4e287b515de o )  ) ) ( type_eef3f25c_b092_497a_a222_358ba545e4ad_Class41 ( obj_a794c9d8_d994_4677_8191_b4e287b515de o )  ) )):named c46))
(assert (! (exists ((o Int)) (and (and (and (and (and (and ( type_eef3f25c_b092_497a_a222_358ba545e4ad_Class51 ( obj_a794c9d8_d994_4677_8191_b4e287b515de o )  )  ( type_eef3f25c_b092_497a_a222_358ba545e4ad_Class45 ( obj_a794c9d8_d994_4677_8191_b4e287b515de o )  ) ) ( type_eef3f25c_b092_497a_a222_358ba545e4ad_Class12 ( obj_a794c9d8_d994_4677_8191_b4e287b515de o )  ) ) ( type_eef3f25c_b092_497a_a222_358ba545e4ad_Class33 ( obj_a794c9d8_d994_4677_8191_b4e287b515de o )  ) ) ( type_eef3f25c_b092_497a_a222_358ba545e4ad_Class22 ( obj_a794c9d8_d994_4677_8191_b4e287b515de o )  ) ) ( type_eef3f25c_b092_497a_a222_358ba545e4ad_Class16 ( obj_a794c9d8_d994_4677_8191_b4e287b515de o )  ) ) ( type_eef3f25c_b092_497a_a222_358ba545e4ad_Class39 ( obj_a794c9d8_d994_4677_8191_b4e287b515de o )  ) )):named c47))
(assert (! (exists ((o Int)) (and (and (and (and (and ( type_eef3f25c_b092_497a_a222_358ba545e4ad_Class52 ( obj_a794c9d8_d994_4677_8191_b4e287b515de o )  )  ( type_eef3f25c_b092_497a_a222_358ba545e4ad_Class45 ( obj_a794c9d8_d994_4677_8191_b4e287b515de o )  ) ) ( type_eef3f25c_b092_497a_a222_358ba545e4ad_Class12 ( obj_a794c9d8_d994_4677_8191_b4e287b515de o )  ) ) ( type_eef3f25c_b092_497a_a222_358ba545e4ad_Class33 ( obj_a794c9d8_d994_4677_8191_b4e287b515de o )  ) ) ( type_eef3f25c_b092_497a_a222_358ba545e4ad_Class22 ( obj_a794c9d8_d994_4677_8191_b4e287b515de o )  ) ) ( type_eef3f25c_b092_497a_a222_358ba545e4ad_Class39 ( obj_a794c9d8_d994_4677_8191_b4e287b515de o )  ) )):named c48))
(assert (! (exists ((o Int)) ( type_eef3f25c_b092_497a_a222_358ba545e4ad_Class53 ( obj_a794c9d8_d994_4677_8191_b4e287b515de o )  ) ):named c49))
(assert (! (exists ((o Int)) ( type_eef3f25c_b092_497a_a222_358ba545e4ad_Class54 ( obj_a794c9d8_d994_4677_8191_b4e287b515de o )  ) ):named c50))
(assert (! (exists ((o Int)) (and (and (and (and (and (and (and ( type_eef3f25c_b092_497a_a222_358ba545e4ad_Class55 ( obj_a794c9d8_d994_4677_8191_b4e287b515de o )  )  ( type_eef3f25c_b092_497a_a222_358ba545e4ad_Class45 ( obj_a794c9d8_d994_4677_8191_b4e287b515de o )  ) ) ( type_eef3f25c_b092_497a_a222_358ba545e4ad_Class12 ( obj_a794c9d8_d994_4677_8191_b4e287b515de o )  ) ) ( type_eef3f25c_b092_497a_a222_358ba545e4ad_Class33 ( obj_a794c9d8_d994_4677_8191_b4e287b515de o )  ) ) ( type_eef3f25c_b092_497a_a222_358ba545e4ad_Class22 ( obj_a794c9d8_d994_4677_8191_b4e287b515de o )  ) ) ( type_eef3f25c_b092_497a_a222_358ba545e4ad_Class29 ( obj_a794c9d8_d994_4677_8191_b4e287b515de o )  ) ) ( type_eef3f25c_b092_497a_a222_358ba545e4ad_Class39 ( obj_a794c9d8_d994_4677_8191_b4e287b515de o )  ) ) ( type_eef3f25c_b092_497a_a222_358ba545e4ad_Class41 ( obj_a794c9d8_d994_4677_8191_b4e287b515de o )  ) )):named c51))
(assert (! (exists ((o Int)) ( type_eef3f25c_b092_497a_a222_358ba545e4ad_Class6 ( obj_a794c9d8_d994_4677_8191_b4e287b515de o )  ) ):named c52))
(assert (! (exists ((o Int)) (and (and (and (and (and (and (and (and (and ( type_eef3f25c_b092_497a_a222_358ba545e4ad_Class7 ( obj_a794c9d8_d994_4677_8191_b4e287b515de o )  )  ( type_eef3f25c_b092_497a_a222_358ba545e4ad_Class45 ( obj_a794c9d8_d994_4677_8191_b4e287b515de o )  ) ) ( type_eef3f25c_b092_497a_a222_358ba545e4ad_Class12 ( obj_a794c9d8_d994_4677_8191_b4e287b515de o )  ) ) ( type_eef3f25c_b092_497a_a222_358ba545e4ad_Class55 ( obj_a794c9d8_d994_4677_8191_b4e287b515de o )  ) ) ( type_eef3f25c_b092_497a_a222_358ba545e4ad_Class33 ( obj_a794c9d8_d994_4677_8191_b4e287b515de o )  ) ) ( type_eef3f25c_b092_497a_a222_358ba545e4ad_Class22 ( obj_a794c9d8_d994_4677_8191_b4e287b515de o )  ) ) ( type_eef3f25c_b092_497a_a222_358ba545e4ad_Class29 ( obj_a794c9d8_d994_4677_8191_b4e287b515de o )  ) ) ( type_eef3f25c_b092_497a_a222_358ba545e4ad_Class39 ( obj_a794c9d8_d994_4677_8191_b4e287b515de o )  ) ) ( type_eef3f25c_b092_497a_a222_358ba545e4ad_Class50 ( obj_a794c9d8_d994_4677_8191_b4e287b515de o )  ) ) ( type_eef3f25c_b092_497a_a222_358ba545e4ad_Class41 ( obj_a794c9d8_d994_4677_8191_b4e287b515de o )  ) )):named c53))
(assert (! (exists ((o Int)) (and ( type_eef3f25c_b092_497a_a222_358ba545e4ad_Class8 ( obj_a794c9d8_d994_4677_8191_b4e287b515de o )  )  ( type_eef3f25c_b092_497a_a222_358ba545e4ad_Class39 ( obj_a794c9d8_d994_4677_8191_b4e287b515de o )  ) )):named c54))
(assert (! (exists ((o Int)) ( type_eef3f25c_b092_497a_a222_358ba545e4ad_Class9 ( obj_a794c9d8_d994_4677_8191_b4e287b515de o )  ) ):named c55))

 ;end of formula 